1
1422.00 769.50 901.50  895.50
15
403 596 555  167 193
202 385 581  29 75
701 146 186  199 235
545 17 237  87 300
474 410 503  282 74
261 75 655  189 267
457 275 319  162 57
150 53 290  224 76
461 465 281  5 160
776 780 143  129 210
391 263 153  91 125
408 774 359  82 207
194 83 352  158 137
214 599 379  49 4
26 85 498  34 122
